1 -1 2 0
1 1 3 0
1 -2 1 0
1 4 -5 0
1 -4 6 0
1 -4 -7 0
1 -4 -3 0
1 4 8 0
1 3 9 0
1 -9 3 0
1 9 -10 0
1 7 11 0
1 -7 -2 0
1 7 -12 0
1 -7 -8 0
1 8 -11 0
1 8 13 0
1 -8 2 0
1 -8 10 0
1 8 -4 0
1 8 -1 0
1 14 15 0
1 14 -3 0
1 -14 -16 0
1 -14 -12 0
1 17 13 0
1 -17 -16 0
1 18 -16 0
1 -18 19 0
1 -20 21 0
1 -20 -22 0
1 20 -23 0
1 20 19 0
1 -20 9 0
1 -16 -24 0
1 16 25 0
1 16 6 0
1 -16 -26 0
1 -16 14 0
1 -15 25 0
1 15 20 0
1 15 -6 0
1 -15 16 0
1 -15 18 0
1 -15 4 0
1 -15 27 0
1 -28 6 0
1 -28 27 0
1 -5 -29 0
1 5 11 0
1 -5 -6 0
1 -5 -10 0
1 -30 21 0
1 25 15 0
1 25 -30 0
1 -26 15 0
1 -24 29 0
1 -24 -21 0
1 -24 22 0
1 -24 16 0
1 -19 20 0
1 -19 -26 0
1 -22 24 0
1 -22 20 0
1 22 26 0
1 -22 30 0
1 -22 18 0
1 23 -20 0
1 -23 -26 0
1 23 18 0
1 21 -24 0
1 21 -31 0
1 -21 -26 0
1 21 30 0
1 -21 18 0
1 -21 -32 0
1 -12 -13 0
1 12 -33 0
1 -12 -14 0
1 -13 -33 0
1 -13 34 0
1 13 8 0
1 -35 -36 0
1 -35 37 0
1 35 38 0
1 -35 -39 0
1 -36 -34 0
1 36 -40 0
1 -36 38 0
1 36 -7 0
1 36 -33 0
1 36 -8 0
1 37 36 0
1 37 -13 0
1 34 29 0
1 34 -13 0
1 34 37 0
1 40 36 0
1 -40 -13 0
1 -33 35 0
1 10 -38 0
1 10 -41 0
1 -10 7 0
1 10 42 0
1 10 39 0
1 10 8 0
1 -10 9 0
1 -11 -5 0
1 11 37 0
1 -11 38 0
1 11 7 0
1 -11 3 0
1 -11 -34 0
1 43 29 0
1 -43 38 0
1 -43 44 0
1 -43 -45 0
1 43 26 0
1 43 -34 0
1 -43 -46 0
1 -29 24 0
1 29 37 0
1 29 38 0
1 29 43 0
1 -29 39 0
1 -41 -35 0
1 39 -41 0
1 39 -31 0
1 39 -10 0
1 38 -29 0
1 -38 11 0
1 -38 43 0
1 -38 35 0
1 -42 -43 0
1 -42 10 0
1 42 -35 0
1 47 15 0
1 47 23 0
1 -47 39 0
1 -47 46 0
1 27 -48 0
1 -27 -21 0
1 -27 47 0
1 27 -28 0
1 -27 -16 0
1 27 -23 0
1 27 39 0
1 27 46 0
1 31 -44 0
1 -31 45 0
1 -31 23 0
1 31 -39 0
1 -32 -41 0
1 32 -23 0
1 45 -48 0
1 -45 -29 0
1 45 47 0
1 -48 -31 0
1 -48 -27 0
1 44 43 0
1 44 -27 0
1 46 29 0
1 -46 47 0
